(declare-fun x () (_ BitVec 32))
(declare-fun y () (_ BitVec 32))
(assert (= #b00000000000000000000000000111001 (bvadd (bvmul #b11111111111111111111111111010011 x) (bvmul #b11111111111111111111111111111000 y))))
(assert (or (= (bvmul #b00000000000000000000000000111101 x) #b11111111111111111111111111101110) (bvsge (bvmul #b00000000000000000000000001011011 x) #b00000000000000000000000000111010) (not (= #b00000000000000000000000000111001 (bvadd #b11010000000000000000000000000000 (bvmul #b11111111111111111111111111010011 x))))))
(check-sat)
